letting initialStacks = [35, 5, 27, 42, 26, 12, 23, 37, 29, 16, 33, 14, 10, 19, 43, 40, 48, 17, 28, 21, 18, 13, 30, 15, 50, 6, 38, 41, 24, 36, 44, 7, 46, 2, 8, 11, 25, 3, 47, 32, 45, 1, 49, 51, 39, 31, 34, 20, 22, 4, 9]
